NAME Orchestrator
ROWS
 N  OBJ
 L  c0      
 G  c1      
 L  c2      
 G  c3      
 L  c4      
 G  c5      
 L  c6      
 G  c7      
 L  c8      
 G  c9      
 L  c10     
 G  c11     
 L  c12     
 L  c13     
 G  c14     
 G  c15     
 G  c16     
 G  c17     
 G  c18     
 G  c19     
 G  c20     
 G  c21     
 G  c22     
 G  c23     
 G  c24     
 G  c25     
 G  c26     
 G  c27     
 G  c28     
 G  c29     
 G  c30     
 G  c31     
 G  c32     
 G  c33     
 G  c34     
 G  c35     
 G  c36     
 G  c37     
 G  c38     
 G  c39     
 G  c40     
 G  c41     
 G  c42     
 G  c43     
 G  c44     
 G  c45     
 G  c46     
 G  c47     
 G  c48     
 G  c49     
 G  c50     
 G  c51     
 G  c52     
 G  c53     
 G  c54     
 G  c55     
 G  c56     
 G  c57     
 G  c58     
 G  c59     
 G  c60     
 G  c61     
 G  c62     
 G  c63     
 G  c64     
 G  c65     
 G  c66     
 G  c67     
 G  c68     
 G  c69     
 G  c70     
 G  c71     
 G  c72     
 G  c73     
 G  c74     
 G  c75     
 G  c76     
 G  c77     
 G  c78     
 G  c79     
 G  c80     
 G  c81     
 G  c82     
 G  c83     
 G  c84     
 G  c85     
 G  c86     
 G  c87     
 G  c88     
 G  c89     
 G  c90     
 G  c91     
 G  c92     
 G  c93     
 G  c94     
 G  c95     
 G  c96     
 G  c97     
 G  c98     
 G  c99     
 G  c100    
 G  c101    
 G  c102    
 G  c103    
 G  c104    
 G  c105    
 G  c106    
 G  c107    
 G  c108    
 G  c109    
 G  c110    
 G  c111    
 G  c112    
 G  c113    
 G  c114    
 G  c115    
 G  c116    
 G  c117    
 G  c118    
 G  c119    
 G  c120    
 G  c121    
 G  c122    
 G  c123    
 G  c124    
 G  c125    
 G  c126    
 G  c127    
 G  c128    
 G  c129    
 G  c130    
 G  c131    
 G  c132    
 G  c133    
 G  c134    
 G  c135    
 G  c136    
 G  c137    
 G  c138    
 G  c139    
 G  c140    
 G  c141    
 G  c142    
 G  c143    
 G  c144    
 G  c145    
 G  c146    
 G  c147    
 G  c148    
 G  c149    
 G  c150    
 G  c151    
 G  c152    
 G  c153    
 G  c154    
 G  c155    
 G  c156    
 G  c157    
 G  c158    
 G  c159    
 G  c160    
 G  c161    
 G  c162    
 G  c163    
 G  c164    
 G  c165    
 G  c166    
 G  c167    
 G  c168    
 G  c169    
 G  c170    
 G  c171    
 G  c172    
 G  c173    
 G  c174    
 G  c175    
 G  c176    
 G  c177    
 G  c178    
 G  c179    
 G  c180    
 G  c181    
 G  c182    
 G  c183    
 G  c184    
 G  c185    
 G  c186    
 G  c187    
 G  c188    
 G  c189    
 G  c190    
 G  c191    
 G  c192    
 G  c193    
 G  c194    
 G  c195    
 G  c196    
 G  c197    
 G  c198    
 G  c199    
 G  c200    
 G  c201    
 G  c202    
 G  c203    
 G  c204    
 G  c205    
 E  c206    
 E  c207    
 E  c208    
 E  c209    
 E  c210    
 E  c211    
 E  c212    
 E  c213    
 E  c214    
 E  c215    
 E  c216    
 E  c217    
COLUMNS
    flow[00000001_F2,SBS1,SBS1]  OBJ       0
    flow[00000001_F2,SBS1,SBS2]  OBJ       3.3333358024709645e-05
    flow[00000001_F2,SBS1,SBS2]  c15       1349954
    flow[00000001_F2,SBS1,SBS2]  c206      1
    flow[00000001_F2,SBS1,SBS2]  c207      -1
    flow[00000001_F2,SBS1,UE1]  OBJ       1.9333384889026371e-04
    flow[00000001_F2,SBS1,UE1]  c16       232713
    flow[00000001_F2,SBS1,UE1]  c206      1
    flow[00000001_F2,SBS1,UE1]  c215      -1
    flow[00000001_F2,SBS1,UE2]  OBJ       1.6333345432107728e-04
    flow[00000001_F2,SBS1,UE2]  c17       275465
    flow[00000001_F2,SBS1,UE2]  c206      1
    flow[00000001_F2,SBS1,UE3]  OBJ       0
    flow[00000001_F2,SBS1,F1]  OBJ       0
    flow[00000001_F2,SBS1,F2]  OBJ       0
    flow[00000001_F2,SBS1,F3]  OBJ       0
    flow[00000001_F2,SBS2,SBS1]  OBJ       3.3333358024709645e-05
    flow[00000001_F2,SBS2,SBS1]  c22       1349954
    flow[00000001_F2,SBS2,SBS1]  c206      -1
    flow[00000001_F2,SBS2,SBS1]  c207      1
    flow[00000001_F2,SBS2,SBS2]  OBJ       0
    flow[00000001_F2,SBS2,UE1]  OBJ       0
    flow[00000001_F2,SBS2,UE2]  OBJ       6.6666765432245081e-05
    flow[00000001_F2,SBS2,UE2]  c25       674954
    flow[00000001_F2,SBS2,UE2]  c207      1
    flow[00000001_F2,SBS2,UE3]  OBJ       6.6666765432245081e-05
    flow[00000001_F2,SBS2,UE3]  c26       674954
    flow[00000001_F2,SBS2,UE3]  c207      1
    flow[00000001_F2,SBS2,F1]  OBJ       0
    flow[00000001_F2,SBS2,F2]  OBJ       0
    flow[00000001_F2,SBS2,F3]  OBJ       0
    flow[00000001_F2,UE1,SBS1]  OBJ       0
    flow[00000001_F2,UE1,SBS2]  OBJ       0
    flow[00000001_F2,UE1,UE1]  OBJ       0
    flow[00000001_F2,UE1,UE2]  OBJ       0
    flow[00000001_F2,UE1,UE3]  OBJ       0
    flow[00000001_F2,UE1,F1]  OBJ       0
    flow[00000001_F2,UE1,F2]  OBJ       0
    flow[00000001_F2,UE1,F3]  OBJ       0
    flow[00000001_F2,UE2,SBS1]  OBJ       0
    flow[00000001_F2,UE2,SBS2]  OBJ       0
    flow[00000001_F2,UE2,UE1]  OBJ       0
    flow[00000001_F2,UE2,UE2]  OBJ       0
    flow[00000001_F2,UE2,UE3]  OBJ       0
    flow[00000001_F2,UE2,F1]  OBJ       0
    flow[00000001_F2,UE2,F2]  OBJ       0
    flow[00000001_F2,UE2,F3]  OBJ       0
    flow[00000001_F2,UE3,SBS1]  OBJ       0
    flow[00000001_F2,UE3,SBS2]  OBJ       0
    flow[00000001_F2,UE3,UE1]  OBJ       0
    flow[00000001_F2,UE3,UE2]  OBJ       0
    flow[00000001_F2,UE3,UE3]  OBJ       0
    flow[00000001_F2,UE3,F1]  OBJ       0
    flow[00000001_F2,UE3,F2]  OBJ       0
    flow[00000001_F2,UE3,F3]  OBJ       0
    flow[00000001_F2,F1,SBS1]  OBJ       0
    flow[00000001_F2,F1,SBS2]  OBJ       0
    flow[00000001_F2,F1,UE1]  OBJ       0
    flow[00000001_F2,F1,UE2]  OBJ       0
    flow[00000001_F2,F1,UE3]  OBJ       0
    flow[00000001_F2,F1,F1]  OBJ       0
    flow[00000001_F2,F1,F2]  OBJ       0
    flow[00000001_F2,F1,F3]  OBJ       0
    flow[00000001_F2,F2,SBS1]  c0        -7.4074074074074070e-04
    flow[00000001_F2,F2,SBS1]  c1        -7.4074074074074070e-04
    flow[00000001_F2,F2,SBS1]  c62       99954
    flow[00000001_F2,F2,SBS1]  c206      -1
    flow[00000001_F2,F2,SBS1]  c212      1
    flow[00000001_F2,F2,SBS2]  c2        -7.4074074074074070e-04
    flow[00000001_F2,F2,SBS2]  c3        -7.4074074074074070e-04
    flow[00000001_F2,F2,SBS2]  c63       99954
    flow[00000001_F2,F2,SBS2]  c207      -1
    flow[00000001_F2,F2,SBS2]  c212      1
    flow[00000001_F2,F2,UE1]  OBJ       0
    flow[00000001_F2,F2,UE2]  OBJ       0
    flow[00000001_F2,F2,UE3]  OBJ       0
    flow[00000001_F2,F2,F1]  OBJ       0
    flow[00000001_F2,F2,F2]  OBJ       0
    flow[00000001_F2,F2,F3]  OBJ       0
    flow[00000001_F2,F3,SBS1]  OBJ       0
    flow[00000001_F2,F3,SBS2]  OBJ       0
    flow[00000001_F2,F3,UE1]  OBJ       0
    flow[00000001_F2,F3,UE2]  OBJ       0
    flow[00000001_F2,F3,UE3]  OBJ       0
    flow[00000001_F2,F3,F1]  OBJ       0
    flow[00000001_F2,F3,F2]  OBJ       0
    flow[00000001_F2,F3,F3]  OBJ       0
    flow[00000002_F1,SBS1,SBS1]  OBJ       0
    flow[00000002_F1,SBS1,SBS2]  OBJ       3.3333358024709645e-05
    flow[00000002_F1,SBS1,SBS2]  c79       1349954
    flow[00000002_F1,SBS1,SBS2]  c208      1
    flow[00000002_F1,SBS1,SBS2]  c209      -1
    flow[00000002_F1,SBS1,UE1]  OBJ       1.9333384889026371e-04
    flow[00000002_F1,SBS1,UE1]  c80       232713
    flow[00000002_F1,SBS1,UE1]  c208      1
    flow[00000002_F1,SBS1,UE2]  OBJ       1.6333345432107728e-04
    flow[00000002_F1,SBS1,UE2]  c81       275465
    flow[00000002_F1,SBS1,UE2]  c208      1
    flow[00000002_F1,SBS1,UE2]  c216      -1
    flow[00000002_F1,SBS1,UE3]  OBJ       0
    flow[00000002_F1,SBS1,F1]  OBJ       0
    flow[00000002_F1,SBS1,F2]  OBJ       0
    flow[00000002_F1,SBS1,F3]  OBJ       0
    flow[00000002_F1,SBS2,SBS1]  OBJ       3.3333358024709645e-05
    flow[00000002_F1,SBS2,SBS1]  c86       1349954
    flow[00000002_F1,SBS2,SBS1]  c208      -1
    flow[00000002_F1,SBS2,SBS1]  c209      1
    flow[00000002_F1,SBS2,SBS2]  OBJ       0
    flow[00000002_F1,SBS2,UE1]  OBJ       0
    flow[00000002_F1,SBS2,UE2]  OBJ       6.6666765432245081e-05
    flow[00000002_F1,SBS2,UE2]  c89       674954
    flow[00000002_F1,SBS2,UE2]  c209      1
    flow[00000002_F1,SBS2,UE2]  c216      -1
    flow[00000002_F1,SBS2,UE3]  OBJ       6.6666765432245081e-05
    flow[00000002_F1,SBS2,UE3]  c90       674954
    flow[00000002_F1,SBS2,UE3]  c209      1
    flow[00000002_F1,SBS2,F1]  OBJ       0
    flow[00000002_F1,SBS2,F2]  OBJ       0
    flow[00000002_F1,SBS2,F3]  OBJ       0
    flow[00000002_F1,UE1,SBS1]  OBJ       0
    flow[00000002_F1,UE1,SBS2]  OBJ       0
    flow[00000002_F1,UE1,UE1]  OBJ       0
    flow[00000002_F1,UE1,UE2]  OBJ       0
    flow[00000002_F1,UE1,UE3]  OBJ       0
    flow[00000002_F1,UE1,F1]  OBJ       0
    flow[00000002_F1,UE1,F2]  OBJ       0
    flow[00000002_F1,UE1,F3]  OBJ       0
    flow[00000002_F1,UE2,SBS1]  OBJ       0
    flow[00000002_F1,UE2,SBS2]  OBJ       0
    flow[00000002_F1,UE2,UE1]  OBJ       0
    flow[00000002_F1,UE2,UE2]  OBJ       0
    flow[00000002_F1,UE2,UE3]  OBJ       0
    flow[00000002_F1,UE2,F1]  OBJ       0
    flow[00000002_F1,UE2,F2]  OBJ       0
    flow[00000002_F1,UE2,F3]  OBJ       0
    flow[00000002_F1,UE3,SBS1]  OBJ       0
    flow[00000002_F1,UE3,SBS2]  OBJ       0
    flow[00000002_F1,UE3,UE1]  OBJ       0
    flow[00000002_F1,UE3,UE2]  OBJ       0
    flow[00000002_F1,UE3,UE3]  OBJ       0
    flow[00000002_F1,UE3,F1]  OBJ       0
    flow[00000002_F1,UE3,F2]  OBJ       0
    flow[00000002_F1,UE3,F3]  OBJ       0
    flow[00000002_F1,F1,SBS1]  c4        -7.4074074074074070e-04
    flow[00000002_F1,F1,SBS1]  c5        -7.4074074074074070e-04
    flow[00000002_F1,F1,SBS1]  c118      99954
    flow[00000002_F1,F1,SBS1]  c208      -1
    flow[00000002_F1,F1,SBS1]  c213      1
    flow[00000002_F1,F1,SBS2]  c6        -7.4074074074074070e-04
    flow[00000002_F1,F1,SBS2]  c7        -7.4074074074074070e-04
    flow[00000002_F1,F1,UE1]  OBJ       0
    flow[00000002_F1,F1,UE2]  OBJ       0
    flow[00000002_F1,F1,UE3]  OBJ       0
    flow[00000002_F1,F1,F1]  OBJ       0
    flow[00000002_F1,F1,F2]  OBJ       0
    flow[00000002_F1,F1,F3]  OBJ       0
    flow[00000002_F1,F2,SBS1]  OBJ       0
    flow[00000002_F1,F2,SBS2]  OBJ       0
    flow[00000002_F1,F2,UE1]  OBJ       0
    flow[00000002_F1,F2,UE2]  OBJ       0
    flow[00000002_F1,F2,UE3]  OBJ       0
    flow[00000002_F1,F2,F1]  OBJ       0
    flow[00000002_F1,F2,F2]  OBJ       0
    flow[00000002_F1,F2,F3]  OBJ       0
    flow[00000002_F1,F3,SBS1]  OBJ       0
    flow[00000002_F1,F3,SBS2]  OBJ       0
    flow[00000002_F1,F3,UE1]  OBJ       0
    flow[00000002_F1,F3,UE2]  OBJ       0
    flow[00000002_F1,F3,UE3]  OBJ       0
    flow[00000002_F1,F3,F1]  OBJ       0
    flow[00000002_F1,F3,F2]  OBJ       0
    flow[00000002_F1,F3,F3]  OBJ       0
    flow[00000004_F1,SBS1,SBS1]  OBJ       0
    flow[00000004_F1,SBS1,SBS2]  OBJ       3.3333358024709645e-05
    flow[00000004_F1,SBS1,SBS2]  c143      1349954
    flow[00000004_F1,SBS1,SBS2]  c210      1
    flow[00000004_F1,SBS1,SBS2]  c211      -1
    flow[00000004_F1,SBS1,UE1]  OBJ       1.9333384889026371e-04
    flow[00000004_F1,SBS1,UE1]  c144      232713
    flow[00000004_F1,SBS1,UE1]  c210      1
    flow[00000004_F1,SBS1,UE1]  c217      -1
    flow[00000004_F1,SBS1,UE2]  OBJ       1.6333345432107728e-04
    flow[00000004_F1,SBS1,UE2]  c145      275465
    flow[00000004_F1,SBS1,UE2]  c210      1
    flow[00000004_F1,SBS1,UE3]  OBJ       0
    flow[00000004_F1,SBS1,F1]  OBJ       0
    flow[00000004_F1,SBS1,F2]  OBJ       0
    flow[00000004_F1,SBS1,F3]  OBJ       0
    flow[00000004_F1,SBS2,SBS1]  OBJ       3.3333358024709645e-05
    flow[00000004_F1,SBS2,SBS1]  c150      1349954
    flow[00000004_F1,SBS2,SBS1]  c210      -1
    flow[00000004_F1,SBS2,SBS1]  c211      1
    flow[00000004_F1,SBS2,SBS2]  OBJ       0
    flow[00000004_F1,SBS2,UE1]  OBJ       0
    flow[00000004_F1,SBS2,UE2]  OBJ       6.6666765432245081e-05
    flow[00000004_F1,SBS2,UE2]  c153      674954
    flow[00000004_F1,SBS2,UE2]  c211      1
    flow[00000004_F1,SBS2,UE3]  OBJ       6.6666765432245081e-05
    flow[00000004_F1,SBS2,UE3]  c154      674954
    flow[00000004_F1,SBS2,UE3]  c211      1
    flow[00000004_F1,SBS2,F1]  OBJ       0
    flow[00000004_F1,SBS2,F2]  OBJ       0
    flow[00000004_F1,SBS2,F3]  OBJ       0
    flow[00000004_F1,UE1,SBS1]  OBJ       0
    flow[00000004_F1,UE1,SBS2]  OBJ       0
    flow[00000004_F1,UE1,UE1]  OBJ       0
    flow[00000004_F1,UE1,UE2]  OBJ       0
    flow[00000004_F1,UE1,UE3]  OBJ       0
    flow[00000004_F1,UE1,F1]  OBJ       0
    flow[00000004_F1,UE1,F2]  OBJ       0
    flow[00000004_F1,UE1,F3]  OBJ       0
    flow[00000004_F1,UE2,SBS1]  OBJ       0
    flow[00000004_F1,UE2,SBS2]  OBJ       0
    flow[00000004_F1,UE2,UE1]  OBJ       0
    flow[00000004_F1,UE2,UE2]  OBJ       0
    flow[00000004_F1,UE2,UE3]  OBJ       0
    flow[00000004_F1,UE2,F1]  OBJ       0
    flow[00000004_F1,UE2,F2]  OBJ       0
    flow[00000004_F1,UE2,F3]  OBJ       0
    flow[00000004_F1,UE3,SBS1]  OBJ       0
    flow[00000004_F1,UE3,SBS2]  OBJ       0
    flow[00000004_F1,UE3,UE1]  OBJ       0
    flow[00000004_F1,UE3,UE2]  OBJ       0
    flow[00000004_F1,UE3,UE3]  OBJ       0
    flow[00000004_F1,UE3,F1]  OBJ       0
    flow[00000004_F1,UE3,F2]  OBJ       0
    flow[00000004_F1,UE3,F3]  OBJ       0
    flow[00000004_F1,F1,SBS1]  c8        -7.4074074074074070e-04
    flow[00000004_F1,F1,SBS1]  c9        -7.4074074074074070e-04
    flow[00000004_F1,F1,SBS1]  c182      99954
    flow[00000004_F1,F1,SBS1]  c210      -1
    flow[00000004_F1,F1,SBS1]  c214      1
    flow[00000004_F1,F1,SBS2]  c10       -7.4074074074074070e-04
    flow[00000004_F1,F1,SBS2]  c11       -7.4074074074074070e-04
    flow[00000004_F1,F1,UE1]  OBJ       0
    flow[00000004_F1,F1,UE2]  OBJ       0
    flow[00000004_F1,F1,UE3]  OBJ       0
    flow[00000004_F1,F1,F1]  OBJ       0
    flow[00000004_F1,F1,F2]  OBJ       0
    flow[00000004_F1,F1,F3]  OBJ       0
    flow[00000004_F1,F2,SBS1]  OBJ       0
    flow[00000004_F1,F2,SBS2]  OBJ       0
    flow[00000004_F1,F2,UE1]  OBJ       0
    flow[00000004_F1,F2,UE2]  OBJ       0
    flow[00000004_F1,F2,UE3]  OBJ       0
    flow[00000004_F1,F2,F1]  OBJ       0
    flow[00000004_F1,F2,F2]  OBJ       0
    flow[00000004_F1,F2,F3]  OBJ       0
    flow[00000004_F1,F3,SBS1]  OBJ       0
    flow[00000004_F1,F3,SBS2]  OBJ       0
    flow[00000004_F1,F3,UE1]  OBJ       0
    flow[00000004_F1,F3,UE2]  OBJ       0
    flow[00000004_F1,F3,UE3]  OBJ       0
    flow[00000004_F1,F3,F1]  OBJ       0
    flow[00000004_F1,F3,F2]  OBJ       0
    flow[00000004_F1,F3,F3]  OBJ       0
    MARKER    'MARKER'                 'INTORG'
    host[00000001_F2,SBS1]  OBJ       0.999996000016
    host[00000001_F2,SBS1]  c0        1
    host[00000001_F2,SBS1]  c1        1
    host[00000001_F2,SBS1]  c12       25
    host[00000001_F2,SBS2]  OBJ       0.999996000016
    host[00000001_F2,SBS2]  c2        1
    host[00000001_F2,SBS2]  c3        1
    host[00000001_F2,SBS2]  c13       25
    host[00000002_F1,SBS1]  OBJ       0.999996000016
    host[00000002_F1,SBS1]  c4        1
    host[00000002_F1,SBS1]  c5        1
    host[00000002_F1,SBS1]  c12       25
    host[00000002_F1,SBS2]  OBJ       250000
    host[00000002_F1,SBS2]  c6        1
    host[00000002_F1,SBS2]  c7        1
    host[00000002_F1,SBS2]  c13       25
    host[00000004_F1,SBS1]  OBJ       0.999996000016
    host[00000004_F1,SBS1]  c8        1
    host[00000004_F1,SBS1]  c9        1
    host[00000004_F1,SBS1]  c12       25
    host[00000004_F1,SBS2]  OBJ       250000
    host[00000004_F1,SBS2]  c10       1
    host[00000004_F1,SBS2]  c11       1
    host[00000004_F1,SBS2]  c13       25
    MARKER    'MARKER'                 'INTEND'
RHS
    RHS1      c0        0.9999
    RHS1      c2        0.9999
    RHS1      c4        0.9999
    RHS1      c6        0.9999
    RHS1      c8        0.9999
    RHS1      c10       0.9999
    RHS1      c12       25
    RHS1      c13       25
    RHS1      c212      45
    RHS1      c213      45
    RHS1      c214      45
    RHS1      c215      -45
    RHS1      c216      -45
    RHS1      c217      -45
BOUNDS
 SC BND1      flow[00000001_F2,SBS1,SBS1]  1e+30
 SC BND1      flow[00000001_F2,SBS1,SBS2]  1e+30
 SC BND1      flow[00000001_F2,SBS1,UE1]  1e+30
 SC BND1      flow[00000001_F2,SBS1,UE2]  1e+30
 SC BND1      flow[00000001_F2,SBS1,UE3]  1e+30
 SC BND1      flow[00000001_F2,SBS1,F1]  1e+30
 SC BND1      flow[00000001_F2,SBS1,F2]  1e+30
 SC BND1      flow[00000001_F2,SBS1,F3]  1e+30
 SC BND1      flow[00000001_F2,SBS2,SBS1]  1e+30
 SC BND1      flow[00000001_F2,SBS2,SBS2]  1e+30
 SC BND1      flow[00000001_F2,SBS2,UE1]  1e+30
 SC BND1      flow[00000001_F2,SBS2,UE2]  1e+30
 SC BND1      flow[00000001_F2,SBS2,UE3]  1e+30
 SC BND1      flow[00000001_F2,SBS2,F1]  1e+30
 SC BND1      flow[00000001_F2,SBS2,F2]  1e+30
 SC BND1      flow[00000001_F2,SBS2,F3]  1e+30
 SC BND1      flow[00000001_F2,UE1,SBS1]  1e+30
 SC BND1      flow[00000001_F2,UE1,SBS2]  1e+30
 SC BND1      flow[00000001_F2,UE1,UE1]  1e+30
 SC BND1      flow[00000001_F2,UE1,UE2]  1e+30
 SC BND1      flow[00000001_F2,UE1,UE3]  1e+30
 SC BND1      flow[00000001_F2,UE1,F1]  1e+30
 SC BND1      flow[00000001_F2,UE1,F2]  1e+30
 SC BND1      flow[00000001_F2,UE1,F3]  1e+30
 SC BND1      flow[00000001_F2,UE2,SBS1]  1e+30
 SC BND1      flow[00000001_F2,UE2,SBS2]  1e+30
 SC BND1      flow[00000001_F2,UE2,UE1]  1e+30
 SC BND1      flow[00000001_F2,UE2,UE2]  1e+30
 SC BND1      flow[00000001_F2,UE2,UE3]  1e+30
 SC BND1      flow[00000001_F2,UE2,F1]  1e+30
 SC BND1      flow[00000001_F2,UE2,F2]  1e+30
 SC BND1      flow[00000001_F2,UE2,F3]  1e+30
 SC BND1      flow[00000001_F2,UE3,SBS1]  1e+30
 SC BND1      flow[00000001_F2,UE3,SBS2]  1e+30
 SC BND1      flow[00000001_F2,UE3,UE1]  1e+30
 SC BND1      flow[00000001_F2,UE3,UE2]  1e+30
 SC BND1      flow[00000001_F2,UE3,UE3]  1e+30
 SC BND1      flow[00000001_F2,UE3,F1]  1e+30
 SC BND1      flow[00000001_F2,UE3,F2]  1e+30
 SC BND1      flow[00000001_F2,UE3,F3]  1e+30
 SC BND1      flow[00000001_F2,F1,SBS1]  1e+30
 SC BND1      flow[00000001_F2,F1,SBS2]  1e+30
 SC BND1      flow[00000001_F2,F1,UE1]  1e+30
 SC BND1      flow[00000001_F2,F1,UE2]  1e+30
 SC BND1      flow[00000001_F2,F1,UE3]  1e+30
 SC BND1      flow[00000001_F2,F1,F1]  1e+30
 SC BND1      flow[00000001_F2,F1,F2]  1e+30
 SC BND1      flow[00000001_F2,F1,F3]  1e+30
 SC BND1      flow[00000001_F2,F2,SBS1]  1e+30
 SC BND1      flow[00000001_F2,F2,SBS2]  1e+30
 SC BND1      flow[00000001_F2,F2,UE1]  1e+30
 SC BND1      flow[00000001_F2,F2,UE2]  1e+30
 SC BND1      flow[00000001_F2,F2,UE3]  1e+30
 SC BND1      flow[00000001_F2,F2,F1]  1e+30
 SC BND1      flow[00000001_F2,F2,F2]  1e+30
 SC BND1      flow[00000001_F2,F2,F3]  1e+30
 SC BND1      flow[00000001_F2,F3,SBS1]  1e+30
 SC BND1      flow[00000001_F2,F3,SBS2]  1e+30
 SC BND1      flow[00000001_F2,F3,UE1]  1e+30
 SC BND1      flow[00000001_F2,F3,UE2]  1e+30
 SC BND1      flow[00000001_F2,F3,UE3]  1e+30
 SC BND1      flow[00000001_F2,F3,F1]  1e+30
 SC BND1      flow[00000001_F2,F3,F2]  1e+30
 SC BND1      flow[00000001_F2,F3,F3]  1e+30
 SC BND1      flow[00000002_F1,SBS1,SBS1]  1e+30
 SC BND1      flow[00000002_F1,SBS1,SBS2]  1e+30
 SC BND1      flow[00000002_F1,SBS1,UE1]  1e+30
 SC BND1      flow[00000002_F1,SBS1,UE2]  1e+30
 SC BND1      flow[00000002_F1,SBS1,UE3]  1e+30
 SC BND1      flow[00000002_F1,SBS1,F1]  1e+30
 SC BND1      flow[00000002_F1,SBS1,F2]  1e+30
 SC BND1      flow[00000002_F1,SBS1,F3]  1e+30
 SC BND1      flow[00000002_F1,SBS2,SBS1]  1e+30
 SC BND1      flow[00000002_F1,SBS2,SBS2]  1e+30
 SC BND1      flow[00000002_F1,SBS2,UE1]  1e+30
 SC BND1      flow[00000002_F1,SBS2,UE2]  1e+30
 SC BND1      flow[00000002_F1,SBS2,UE3]  1e+30
 SC BND1      flow[00000002_F1,SBS2,F1]  1e+30
 SC BND1      flow[00000002_F1,SBS2,F2]  1e+30
 SC BND1      flow[00000002_F1,SBS2,F3]  1e+30
 SC BND1      flow[00000002_F1,UE1,SBS1]  1e+30
 SC BND1      flow[00000002_F1,UE1,SBS2]  1e+30
 SC BND1      flow[00000002_F1,UE1,UE1]  1e+30
 SC BND1      flow[00000002_F1,UE1,UE2]  1e+30
 SC BND1      flow[00000002_F1,UE1,UE3]  1e+30
 SC BND1      flow[00000002_F1,UE1,F1]  1e+30
 SC BND1      flow[00000002_F1,UE1,F2]  1e+30
 SC BND1      flow[00000002_F1,UE1,F3]  1e+30
 SC BND1      flow[00000002_F1,UE2,SBS1]  1e+30
 SC BND1      flow[00000002_F1,UE2,SBS2]  1e+30
 SC BND1      flow[00000002_F1,UE2,UE1]  1e+30
 SC BND1      flow[00000002_F1,UE2,UE2]  1e+30
 SC BND1      flow[00000002_F1,UE2,UE3]  1e+30
 SC BND1      flow[00000002_F1,UE2,F1]  1e+30
 SC BND1      flow[00000002_F1,UE2,F2]  1e+30
 SC BND1      flow[00000002_F1,UE2,F3]  1e+30
 SC BND1      flow[00000002_F1,UE3,SBS1]  1e+30
 SC BND1      flow[00000002_F1,UE3,SBS2]  1e+30
 SC BND1      flow[00000002_F1,UE3,UE1]  1e+30
 SC BND1      flow[00000002_F1,UE3,UE2]  1e+30
 SC BND1      flow[00000002_F1,UE3,UE3]  1e+30
 SC BND1      flow[00000002_F1,UE3,F1]  1e+30
 SC BND1      flow[00000002_F1,UE3,F2]  1e+30
 SC BND1      flow[00000002_F1,UE3,F3]  1e+30
 SC BND1      flow[00000002_F1,F1,SBS1]  1e+30
 SC BND1      flow[00000002_F1,F1,SBS2]  1e+30
 SC BND1      flow[00000002_F1,F1,UE1]  1e+30
 SC BND1      flow[00000002_F1,F1,UE2]  1e+30
 SC BND1      flow[00000002_F1,F1,UE3]  1e+30
 SC BND1      flow[00000002_F1,F1,F1]  1e+30
 SC BND1      flow[00000002_F1,F1,F2]  1e+30
 SC BND1      flow[00000002_F1,F1,F3]  1e+30
 SC BND1      flow[00000002_F1,F2,SBS1]  1e+30
 SC BND1      flow[00000002_F1,F2,SBS2]  1e+30
 SC BND1      flow[00000002_F1,F2,UE1]  1e+30
 SC BND1      flow[00000002_F1,F2,UE2]  1e+30
 SC BND1      flow[00000002_F1,F2,UE3]  1e+30
 SC BND1      flow[00000002_F1,F2,F1]  1e+30
 SC BND1      flow[00000002_F1,F2,F2]  1e+30
 SC BND1      flow[00000002_F1,F2,F3]  1e+30
 SC BND1      flow[00000002_F1,F3,SBS1]  1e+30
 SC BND1      flow[00000002_F1,F3,SBS2]  1e+30
 SC BND1      flow[00000002_F1,F3,UE1]  1e+30
 SC BND1      flow[00000002_F1,F3,UE2]  1e+30
 SC BND1      flow[00000002_F1,F3,UE3]  1e+30
 SC BND1      flow[00000002_F1,F3,F1]  1e+30
 SC BND1      flow[00000002_F1,F3,F2]  1e+30
 SC BND1      flow[00000002_F1,F3,F3]  1e+30
 SC BND1      flow[00000004_F1,SBS1,SBS1]  1e+30
 SC BND1      flow[00000004_F1,SBS1,SBS2]  1e+30
 SC BND1      flow[00000004_F1,SBS1,UE1]  1e+30
 SC BND1      flow[00000004_F1,SBS1,UE2]  1e+30
 SC BND1      flow[00000004_F1,SBS1,UE3]  1e+30
 SC BND1      flow[00000004_F1,SBS1,F1]  1e+30
 SC BND1      flow[00000004_F1,SBS1,F2]  1e+30
 SC BND1      flow[00000004_F1,SBS1,F3]  1e+30
 SC BND1      flow[00000004_F1,SBS2,SBS1]  1e+30
 SC BND1      flow[00000004_F1,SBS2,SBS2]  1e+30
 SC BND1      flow[00000004_F1,SBS2,UE1]  1e+30
 SC BND1      flow[00000004_F1,SBS2,UE2]  1e+30
 SC BND1      flow[00000004_F1,SBS2,UE3]  1e+30
 SC BND1      flow[00000004_F1,SBS2,F1]  1e+30
 SC BND1      flow[00000004_F1,SBS2,F2]  1e+30
 SC BND1      flow[00000004_F1,SBS2,F3]  1e+30
 SC BND1      flow[00000004_F1,UE1,SBS1]  1e+30
 SC BND1      flow[00000004_F1,UE1,SBS2]  1e+30
 SC BND1      flow[00000004_F1,UE1,UE1]  1e+30
 SC BND1      flow[00000004_F1,UE1,UE2]  1e+30
 SC BND1      flow[00000004_F1,UE1,UE3]  1e+30
 SC BND1      flow[00000004_F1,UE1,F1]  1e+30
 SC BND1      flow[00000004_F1,UE1,F2]  1e+30
 SC BND1      flow[00000004_F1,UE1,F3]  1e+30
 SC BND1      flow[00000004_F1,UE2,SBS1]  1e+30
 SC BND1      flow[00000004_F1,UE2,SBS2]  1e+30
 SC BND1      flow[00000004_F1,UE2,UE1]  1e+30
 SC BND1      flow[00000004_F1,UE2,UE2]  1e+30
 SC BND1      flow[00000004_F1,UE2,UE3]  1e+30
 SC BND1      flow[00000004_F1,UE2,F1]  1e+30
 SC BND1      flow[00000004_F1,UE2,F2]  1e+30
 SC BND1      flow[00000004_F1,UE2,F3]  1e+30
 SC BND1      flow[00000004_F1,UE3,SBS1]  1e+30
 SC BND1      flow[00000004_F1,UE3,SBS2]  1e+30
 SC BND1      flow[00000004_F1,UE3,UE1]  1e+30
 SC BND1      flow[00000004_F1,UE3,UE2]  1e+30
 SC BND1      flow[00000004_F1,UE3,UE3]  1e+30
 SC BND1      flow[00000004_F1,UE3,F1]  1e+30
 SC BND1      flow[00000004_F1,UE3,F2]  1e+30
 SC BND1      flow[00000004_F1,UE3,F3]  1e+30
 SC BND1      flow[00000004_F1,F1,SBS1]  1e+30
 SC BND1      flow[00000004_F1,F1,SBS2]  1e+30
 SC BND1      flow[00000004_F1,F1,UE1]  1e+30
 SC BND1      flow[00000004_F1,F1,UE2]  1e+30
 SC BND1      flow[00000004_F1,F1,UE3]  1e+30
 SC BND1      flow[00000004_F1,F1,F1]  1e+30
 SC BND1      flow[00000004_F1,F1,F2]  1e+30
 SC BND1      flow[00000004_F1,F1,F3]  1e+30
 SC BND1      flow[00000004_F1,F2,SBS1]  1e+30
 SC BND1      flow[00000004_F1,F2,SBS2]  1e+30
 SC BND1      flow[00000004_F1,F2,UE1]  1e+30
 SC BND1      flow[00000004_F1,F2,UE2]  1e+30
 SC BND1      flow[00000004_F1,F2,UE3]  1e+30
 SC BND1      flow[00000004_F1,F2,F1]  1e+30
 SC BND1      flow[00000004_F1,F2,F2]  1e+30
 SC BND1      flow[00000004_F1,F2,F3]  1e+30
 SC BND1      flow[00000004_F1,F3,SBS1]  1e+30
 SC BND1      flow[00000004_F1,F3,SBS2]  1e+30
 SC BND1      flow[00000004_F1,F3,UE1]  1e+30
 SC BND1      flow[00000004_F1,F3,UE2]  1e+30
 SC BND1      flow[00000004_F1,F3,UE3]  1e+30
 SC BND1      flow[00000004_F1,F3,F1]  1e+30
 SC BND1      flow[00000004_F1,F3,F2]  1e+30
 SC BND1      flow[00000004_F1,F3,F3]  1e+30
 SC BND1      host[00000001_F2,SBS1]  1e+30
 SC BND1      host[00000001_F2,SBS2]  1e+30
 SC BND1      host[00000002_F1,SBS1]  1e+30
 SC BND1      host[00000002_F1,SBS2]  1e+30
 SC BND1      host[00000004_F1,SBS1]  1e+30
 SC BND1      host[00000004_F1,SBS2]  1e+30
ENDATA
